networks/zoo_86_724/zoo_86_724-lower.txt
Number of groups: 47
Flow 8: {34 17 0} {17 18 0} {18 19 0} {19 12 0} {12 55 0} 
Flow 21: {1 35 0} {35 3 0} {3 33 0} {33 30 0} {30 73 0} 
Flow 37: {2 1 0} {1 34 0} {34 24 0} {24 13 0} {13 56 0} 
Flow 40: {2 7 0} {7 8 0} {8 28 0} {28 27 0} {27 70 0} 
Flow 82: {4 5 0} {5 48 0} 
Flow 96: {4 35 0} {35 78 0} 
Flow 133: {6 32 0} {32 31 0} {31 74 0} 
Flow 140: {36 37 0} {37 38 0} {38 81 0} 
Flow 146: {10 32 0} {32 5 0} {5 4 0} {4 47 0} 
Flow 150: {27 28 0} {28 8 0} {8 51 0} 
Flow 153: {10 16 0} {16 59 0} 
Flow 185: {11 12 0} {12 19 0} {19 62 0} 
Flow 219: {43 34 0} {34 1 0} {1 5 0} {5 32 0} {32 28 0} {28 29 0} 
Flow 229: {12 11 0} {11 20 0} {20 43 0} {43 42 0} {42 41 0} {41 84 0} 
Flow 243: {24 34 0} {34 43 0} {43 20 0} {20 63 0} 
Flow 263: {15 3 0} {3 35 0} {35 1 0} {1 7 0} {7 50 0} 
Flow 286: {16 10 0} {10 27 0} {27 29 0} {29 72 0} 
Flow 292: {16 32 0} {32 6 0} {6 9 0} {9 36 0} {36 79 0} 
Flow 339: {19 18 0} {18 17 0} {17 34 0} {34 77 0} 
Flow 353: {21 23 0} {23 66 0} 
Flow 373: {22 21 0} {21 33 0} {33 76 0} 
Flow 379: {23 32 0} {32 10 0} 
Flow 393: {13 14 0} {14 3 0} {3 46 0} 
Flow 405: {25 33 0} {33 21 0} {21 64 0} 
Flow 412: {26 28 0} {28 32 0} 
Flow 419: {8 7 0} {7 1 0} {1 44 0} 
Flow 426: {27 10 0} {10 53 0} 
Flow 430: {17 60 0} 
Flow 436: {28 26 0} {26 69 0} 
Flow 454: {29 28 0} {28 71 0} 
Flow 466: {30 33 0} {33 41 0} {41 42 0} {42 43 0} {43 86 0} 
Flow 476: {31 32 0} {32 16 0} 
Flow 490: {31 33 0} {33 38 0} {38 37 0} {37 80 0} 
Flow 497: {5 1 0} {1 2 0} {2 45 0} 
Flow 504: {9 52 0} 
Flow 509: {32 33 0} {33 3 0} {3 14 0} {14 57 0} 
Flow 510: {3 15 0} {15 58 0} 
Flow 516: {32 23 0} {23 21 0} {21 22 0} {22 65 0} 
Flow 545: {20 11 0} {11 54 0} 
Flow 557: {14 13 0} {13 24 0} {24 67 0} 
Flow 571: {33 40 0} {40 83 0} 
Flow 613: {37 36 0} {36 9 0} {9 6 0} {6 49 0} 
Flow 633: {38 33 0} {33 39 0} {39 82 0} 
Flow 660: {39 33 0} {33 32 0} {32 75 0} 
Flow 662: {35 4 0} 
Flow 679: {41 33 0} {33 31 0} 
Flow 724: {42 85 0} 
Time taken running everything: 4 seconds
