networks/zoo_86_724/zoo_86_724-lower.sol
<?xml version = "1.0" encoding="UTF-8" standalone="yes"?>
<CPLEXSolution version="1.2">
 <header
   problemName="networks/zoo_86_724/zoo_86_724-lower.lp"
   solutionName="incumbent"
   solutionIndex="-1"
   objectiveValue="41"
   solutionTypeValue="3"
   solutionTypeString="primal"
   solutionStatusValue="101"
   solutionStatusString="integer optimal solution"
   solutionMethodString="mip"
   primalFeasible="1"
   dualFeasible="1"
   MIPNodes="0"
   MIPIterations="0"
   writeLevel="3"/>
 <quality
   epInt="1.0000000000000001e-05"
   epRHS="9.9999999999999995e-07"
   maxIntInfeas="0"
   maxPrimalInfeas="0"
   maxX="1"
   maxSlack="1"/>
 <variables>
  <variable name="Y(1,3)" index="2" value="1"/>
  <variable name="Y(2,4)" index="87" value="1"/>
  <variable name="Y(3,5)" index="172" value="1"/>
  <variable name="Y(4,6)" index="257" value="1"/>
  <variable name="Y(5,7)" index="342" value="1"/>
  <variable name="Y(6,8)" index="427" value="1"/>
  <variable name="Y(7,10)" index="513" value="1"/>
  <variable name="Y(8,12)" index="599" value="1"/>
  <variable name="Y(9,13)" index="684" value="1"/>
  <variable name="Y(10,16)" index="771" value="1"/>
  <variable name="Y(11,17)" index="856" value="1"/>
  <variable name="Y(12,19)" index="942" value="1"/>
  <variable name="Y(13,20)" index="1027" value="1"/>
  <variable name="Y(14,21)" index="1112" value="1"/>
  <variable name="Y(15,23)" index="1198" value="1"/>
  <variable name="Y(16,24)" index="1283" value="1"/>
  <variable name="Y(17,26)" index="1369" value="1"/>
  <variable name="Y(18,27)" index="1454" value="1"/>
  <variable name="Y(19,28)" index="1539" value="1"/>
  <variable name="Y(20,29)" index="1624" value="1"/>
  <variable name="Y(21,30)" index="1709" value="1"/>
  <variable name="Y(22,31)" index="1794" value="1"/>
  <variable name="Y(23,32)" index="1879" value="1"/>
  <variable name="Y(24,33)" index="1964" value="1"/>
  <variable name="Y(25,34)" index="2049" value="1"/>
  <variable name="Y(26,35)" index="2134" value="1"/>
  <variable name="Y(27,36)" index="2219" value="1"/>
  <variable name="Y(28,37)" index="2304" value="1"/>
  <variable name="Y(29,38)" index="2389" value="1"/>
  <variable name="Y(30,39)" index="2474" value="1"/>
  <variable name="Y(31,41)" index="2560" value="1"/>
  <variable name="Y(32,42)" index="2645" value="1"/>
  <variable name="Y(33,43)" index="2730" value="1"/>
  <variable name="Y(47,1)" index="3864" value="1"/>
  <variable name="Y(61,22)" index="5061" value="1"/>
  <variable name="Y(497,2)" index="41665" value="1"/>
  <variable name="Y(504,9)" index="42260" value="1"/>
  <variable name="Y(506,11)" index="42430" value="1"/>
  <variable name="Y(509,14)" index="42685" value="1"/>
  <variable name="Y(510,15)" index="42770" value="1"/>
  <variable name="Y(571,40)" index="47919" value="1"/>
  <variable name="X(1,2,497)" index="61312" value="1"/>
  <variable name="X(1,5,3)" index="61542" value="1"/>
  <variable name="X(1,7,5)" index="62268" value="1"/>
  <variable name="X(1,34,8)" index="62995" value="1"/>
  <variable name="X(1,35,1)" index="63712" value="1"/>
  <variable name="X(1,44,47)" index="64482" value="1"/>
  <variable name="X(2,1,34)" index="65193" value="1"/>
  <variable name="X(2,7,35)" index="65918" value="1"/>
  <variable name="X(2,45,497)" index="67104" value="1"/>
  <variable name="X(3,14,55)" index="67386" value="1"/>
  <variable name="X(3,15,510)" index="68565" value="1"/>
  <variable name="X(3,33,14)" index="68793" value="1"/>
  <variable name="X(3,35,47)" index="69550" value="1"/>
  <variable name="X(3,46,1)" index="70228" value="1"/>
  <variable name="X(4,5,82)" index="71033" value="1"/>
  <variable name="X(4,35,81)" index="71756" value="1"/>
  <variable name="X(4,47,2)" index="72401" value="1"/>
  <variable name="X(5,1,101)" index="73224" value="1"/>
  <variable name="X(5,4,116)" index="73963" value="1"/>
  <variable name="X(5,32,4)" index="74575" value="1"/>
  <variable name="X(5,48,3)" index="75298" value="1"/>
  <variable name="X(6,9,27)" index="76046" value="1"/>
  <variable name="X(6,32,100)" index="76843" value="1"/>
  <variable name="X(6,49,4)" index="77471" value="1"/>
  <variable name="X(7,1,110)" index="78301" value="1"/>
  <variable name="X(7,8,6)" index="78921" value="1"/>
  <variable name="X(7,50,5)" index="79644" value="1"/>
  <variable name="X(8,7,110)" index="80473" value="1"/>
  <variable name="X(8,28,40)" index="81127" value="1"/>
  <variable name="X(8,51,6)" index="81817" value="1"/>
  <variable name="X(9,6,115)" index="82650" value="1"/>
  <variable name="X(9,36,27)" index="83286" value="1"/>
  <variable name="X(9,52,504)" index="84487" value="1"/>
  <variable name="X(10,16,153)" index="84860" value="1"/>
  <variable name="X(10,27,18)" index="85449" value="1"/>
  <variable name="X(10,32,145)" index="86300" value="1"/>
  <variable name="X(10,53,7)" index="86886" value="1"/>
  <variable name="X(11,12,54)" index="87657" value="1"/>
  <variable name="X(11,20,175)" index="88502" value="1"/>
  <variable name="X(11,54,506)" index="89557" value="1"/>
  <variable name="X(12,11,204)" index="89979" value="1"/>
  <variable name="X(12,19,185)" index="90684" value="1"/>
  <variable name="X(12,55,8)" index="91231" value="1"/>
  <variable name="X(13,14,232)" index="92179" value="1"/>
  <variable name="X(13,24,63)" index="92734" value="1"/>
  <variable name="X(13,56,9)" index="93404" value="1"/>
  <variable name="X(14,3,232)" index="94351" value="1"/>
  <variable name="X(14,13,55)" index="94898" value="1"/>
  <variable name="X(14,57,509)" index="96076" value="1"/>
  <variable name="X(15,3,262)" index="96553" value="1"/>
  <variable name="X(15,58,510)" index="97525" value="1"/>
  <variable name="X(16,10,276)" index="98015" value="1"/>
  <variable name="X(16,32,271)" index="98734" value="1"/>
  <variable name="X(16,59,10)" index="99197" value="1"/>
  <variable name="X(17,18,8)" index="99919" value="1"/>
  <variable name="X(17,34,299)" index="100934" value="1"/>
  <variable name="X(17,60,11)" index="101370" value="1"/>
  <variable name="X(18,17,212)" index="102295" value="1"/>
  <variable name="X(18,19,8)" index="102815" value="1"/>
  <variable name="X(19,12,8)" index="103539" value="1"/>
  <variable name="X(19,18,212)" index="104467" value="1"/>
  <variable name="X(19,62,12)" index="104991" value="1"/>
  <variable name="X(20,11,54)" index="105757" value="1"/>
  <variable name="X(20,43,175)" index="106602" value="1"/>
  <variable name="X(20,63,13)" index="107164" value="1"/>
  <variable name="X(21,22,61)" index="107936" value="1"/>
  <variable name="X(21,23,62)" index="108661" value="1"/>
  <variable name="X(21,33,340)" index="109663" value="1"/>
  <variable name="X(21,64,14)" index="110061" value="1"/>
  <variable name="X(22,21,370)" index="111141" value="1"/>
  <variable name="X(22,65,61)" index="111556" value="1"/>
  <variable name="X(23,21,103)" index="112322" value="1"/>
  <variable name="X(23,32,376)" index="113319" value="1"/>
  <variable name="X(23,66,15)" index="113682" value="1"/>
  <variable name="X(24,13,9)" index="114400" value="1"/>
  <variable name="X(24,34,234)" index="115349" value="1"/>
  <variable name="X(24,67,16)" index="115855" value="1"/>
  <variable name="X(25,33,403)" index="116966" value="1"/>
  <variable name="X(26,28,412)" index="117699" value="1"/>
  <variable name="X(26,69,17)" index="118028" value="1"/>
  <variable name="X(27,10,426)" index="119161" value="1"/>
  <variable name="X(27,28,149)" index="119608" value="1"/>
  <variable name="X(27,29,162)" index="120345" value="1"/>
  <variable name="X(27,70,18)" index="120925" value="1"/>
  <variable name="X(28,8,52)" index="121683" value="1"/>
  <variable name="X(28,26,17)" index="122372" value="1"/>
  <variable name="X(28,27,40)" index="123119" value="1"/>
  <variable name="X(28,29,20)" index="123823" value="1"/>
  <variable name="X(28,32,112)" index="124639" value="1"/>
  <variable name="X(28,71,19)" index="125270" value="1"/>
  <variable name="X(29,28,452)" index="126427" value="1"/>
  <variable name="X(29,72,20)" index="126719" value="1"/>
  <variable name="X(30,33,458)" index="127881" value="1"/>
  <variable name="X(30,73,21)" index="128168" value="1"/>
  <variable name="X(31,32,468)" index="129339" value="1"/>
  <variable name="X(31,33,467)" index="130062" value="1"/>
  <variable name="X(31,74,22)" index="130341" value="1"/>
  <variable name="X(32,5,49)" index="131092" value="1"/>
  <variable name="X(32,6,4)" index="131771" value="1"/>
  <variable name="X(32,10,7)" index="132498" value="1"/>
  <variable name="X(32,16,10)" index="133225" value="1"/>
  <variable name="X(32,23,15)" index="133954" value="1"/>
  <variable name="X(32,28,17)" index="134680" value="1"/>
  <variable name="X(32,31,22)" index="135409" value="1"/>
  <variable name="X(32,33,100)" index="136211" value="1"/>
  <variable name="X(32,75,23)" index="136858" value="1"/>
  <variable name="X(33,3,100)" index="137659" value="1"/>
  <variable name="X(33,21,14)" index="138297" value="1"/>
  <variable name="X(33,30,21)" index="139028" value="1"/>
  <variable name="X(33,31,69)" index="139800" value="1"/>
  <variable name="X(33,32,49)" index="140504" value="1"/>
  <variable name="X(33,38,28)" index="141207" value="1"/>
  <variable name="X(33,39,30)" index="141933" value="1"/>
  <variable name="X(33,40,571)" index="143198" value="1"/>
  <variable name="X(33,41,54)" index="143405" value="1"/>
  <variable name="X(33,76,24)" index="144099" value="1"/>
  <variable name="X(34,1,175)" index="144974" value="1"/>
  <variable name="X(34,17,8)" index="145531" value="1"/>
  <variable name="X(34,24,9)" index="146256" value="1"/>
  <variable name="X(34,43,13)" index="146984" value="1"/>
  <variable name="X(34,77,25)" index="147720" value="1"/>
  <variable name="X(35,1,47)" index="148466" value="1"/>
  <variable name="X(35,3,1)" index="149144" value="1"/>
  <variable name="X(35,4,2)" index="149869" value="1"/>
  <variable name="X(35,78,26)" index="150617" value="1"/>
  <variable name="X(36,9,610)" index="151925" value="1"/>
  <variable name="X(36,37,139)" index="152178" value="1"/>
  <variable name="X(36,79,27)" index="152790" value="1"/>
  <variable name="X(37,36,74)" index="153561" value="1"/>
  <variable name="X(37,38,140)" index="154351" value="1"/>
  <variable name="X(37,80,28)" index="154963" value="1"/>
  <variable name="X(38,33,611)" index="156270" value="1"/>
  <variable name="X(38,37,28)" index="156411" value="1"/>
  <variable name="X(38,81,29)" index="157136" value="1"/>
  <variable name="X(39,33,659)" index="158490" value="1"/>
  <variable name="X(39,82,30)" index="158585" value="1"/>
  <variable name="X(40,83,571)" index="159850" value="1"/>
  <variable name="X(41,33,186)" index="160189" value="1"/>
  <variable name="X(41,42,54)" index="160781" value="1"/>
  <variable name="X(41,84,31)" index="161482" value="1"/>
  <variable name="X(42,41,31)" index="162206" value="1"/>
  <variable name="X(42,43,54)" index="162953" value="1"/>
  <variable name="X(42,85,32)" index="163655" value="1"/>
  <variable name="X(43,20,13)" index="164360" value="1"/>
  <variable name="X(43,34,175)" index="165246" value="1"/>
  <variable name="X(43,42,31)" index="165826" value="1"/>
  <variable name="X(43,86,33)" index="166552" value="1"/>
 </variables>
</CPLEXSolution>
